unknown
(model
; cardinality of BoundSet is 4
(declare-sort BoundSet 0)
; rep: @uc_BoundSet_0
; rep: @uc_BoundSet_1
; rep: @uc_BoundSet_2
; rep: @uc_BoundSet_3
; cardinality of UnboundSet is 1
(declare-sort UnboundSet 0)
(declare-fun groundTerm_5 () UnboundSet)
(define-fun IsPerchedOn ((BOUND_VARIABLE_469 BoundSet) (BOUND_VARIABLE_470 BoundSet)) Bool true)
(define-fun IsOnBranch ((BOUND_VARIABLE_469 BoundSet) (BOUND_VARIABLE_470 BoundSet)) Bool true)
(define-fun IsPerching ((BOUND_VARIABLE_475 BoundSet)) Bool true)
(define-fun IsInTree ((BOUND_VARIABLE_475 BoundSet)) Bool false)
)
sat
(model
; cardinality of BoundSet is 1
(declare-sort BoundSet 0)
; rep: @uc_BoundSet_0
; cardinality of UnboundSet is 1
(declare-sort UnboundSet 0)
(declare-fun groundTerm_9 () UnboundSet)
(define-fun IsPerchedOn ((BOUND_VARIABLE_515 BoundSet) (BOUND_VARIABLE_516 BoundSet)) Bool true)
(define-fun IsOnBranch ((BOUND_VARIABLE_515 BoundSet) (BOUND_VARIABLE_516 BoundSet)) Bool true)
(define-fun IsPerching ((BOUND_VARIABLE_521 BoundSet)) Bool true)
(define-fun IsInTree ((BOUND_VARIABLE_521 BoundSet)) Bool false)
)
